NAME          BLANK   
ROWS
 N  OBJROW
 L  R0000000
COLUMNS
    C0000000  OBJROW     -816.         R0000000  332.        
    C0000001  OBJROW     -651.         R0000000  150.        
    C0000002  OBJROW     -768.         R0000000  780.        
    C0000003  OBJROW     -896.         R0000000  451.        
    C0000004  OBJROW     -739.         R0000000  471.        
    C0000005  OBJROW     -482.         R0000000  980.        
    C0000006  OBJROW     -172.         R0000000  597.        
    C0000007  OBJROW     -183.         R0000000  758.        
    C0000008  OBJROW     -356.         R0000000  789.        
    C0000009  OBJROW     -365.         R0000000  527.        
    C0000010  OBJROW     -981.         R0000000  852.        
    C0000011  OBJROW     -566.         R0000000  541.        
    C0000012  OBJROW     -53.          R0000000  822.        
    C0000013  OBJROW     -101.         R0000000  391.        
    C0000014  OBJROW     -822.         R0000000  381.        
    C0000015  OBJROW     -982.         R0000000  171.        
    C0000016  OBJROW     -436.         R0000000  825.        
    C0000017  OBJROW     -126.         R0000000  506.        
    C0000018  OBJROW     -773.         R0000000  745.        
    C0000019  OBJROW     -539.         R0000000  57.         
RHS
    RHS       R0000000  16539.      
BOUNDS
 BV BOUND     C0000000  1.          
 BV BOUND     C0000001  1.          
 BV BOUND     C0000002  1.          
 BV BOUND     C0000003  1.          
 BV BOUND     C0000004  1.          
 BV BOUND     C0000005  1.          
 BV BOUND     C0000006  1.          
 BV BOUND     C0000007  1.          
 BV BOUND     C0000008  1.          
 BV BOUND     C0000009  1.          
 BV BOUND     C0000010  1.          
 BV BOUND     C0000011  1.          
 BV BOUND     C0000012  1.          
 BV BOUND     C0000013  1.          
 BV BOUND     C0000014  1.          
 BV BOUND     C0000015  1.          
 BV BOUND     C0000016  1.          
 BV BOUND     C0000017  1.          
 BV BOUND     C0000018  1.          
 BV BOUND     C0000019  1.          
ENDATA
